c This is the baseline generate by sty
p cnf 922 1704
 -1 3 0
 -3 1 0
 -2 4 0
 -4 2 0
 -5 -1 7 0
 -7 5 0
 -7 1 0
 -5 -2 8 0
 -8 5 0
 -8 2 0
 -6 -1 9 0
 -9 6 0
 -9 1 0
 -6 -2 10 0
 -10 6 0
 -10 2 0
 -11 -5 13 0
 -13 11 0
 -13 5 0
 -11 -6 14 0
 -14 11 0
 -14 6 0
 -12 -5 15 0
 -15 12 0
 -15 5 0
 -12 -6 16 0
 -16 12 0
 -16 6 0
 -17 -11 19 0
 -19 17 0
 -19 11 0
 -17 -12 20 0
 -20 17 0
 -20 12 0
 -18 -11 21 0
 -21 18 0
 -21 11 0
 -18 -12 22 0
 -22 18 0
 -22 12 0
 -23 -17 0
 -24 -18 0
 -29 -23 0
 -30 -24 0
 -35 -29 0
 -36 -30 0
 -41 -35 0
 -42 -36 0
 -47 -41 0
 -48 -42 0
 -53 -47 0
 -54 -48 0
 -59 -2 0
 -60 -1 0
 -65 -60 -5 0
 -65 -59 -6 0
 -66 -59 -5 0
 -66 -60 -6 0
 -75 -65 -11 0
 -75 -65 -12 0
 -76 -66 -11 0
 -76 -66 -12 0
 -85 -76 -17 0
 -86 -75 -17 0
 -86 -75 -18 0
 -86 -76 -18 0
 -95 -85 -23 97 0
 -97 95 0
 -97 85 0
 -97 23 0
 -95 -86 -23 98 0
 -98 95 0
 -98 86 0
 -98 23 0
 -95 -85 -24 99 0
 -99 95 0
 -99 85 0
 -99 24 0
 -95 -86 -24 100 0
 -100 95 0
 -100 86 0
 -100 24 0
 -96 -85 -23 101 0
 -101 96 0
 -101 85 0
 -101 23 0
 -96 -86 -23 102 0
 -102 96 0
 -102 86 0
 -102 23 0
 -96 -85 -24 103 0
 -103 96 0
 -103 85 0
 -103 24 0
 -96 -86 -24 104 0
 -104 96 0
 -104 86 0
 -104 24 0
 -105 -95 -29 107 0
 -107 105 0
 -107 95 0
 -107 29 0
 -105 -96 -29 108 0
 -108 105 0
 -108 96 0
 -108 29 0
 -105 -95 -30 109 0
 -109 105 0
 -109 95 0
 -109 30 0
 -105 -96 -30 110 0
 -110 105 0
 -110 96 0
 -110 30 0
 -106 -95 -29 111 0
 -111 106 0
 -111 95 0
 -111 29 0
 -106 -96 -29 112 0
 -112 106 0
 -112 96 0
 -112 29 0
 -106 -95 -30 113 0
 -113 106 0
 -113 95 0
 -113 30 0
 -106 -96 -30 114 0
 -114 106 0
 -114 96 0
 -114 30 0
 -115 -105 -35 0
 -115 -106 -35 0
 -116 -105 -36 0
 -116 -106 -36 0
 -125 -115 -41 127 0
 -127 125 0
 -127 115 0
 -127 41 0
 -125 -116 -41 128 0
 -128 125 0
 -128 116 0
 -128 41 0
 -125 -115 -42 129 0
 -129 125 0
 -129 115 0
 -129 42 0
 -125 -116 -42 130 0
 -130 125 0
 -130 116 0
 -130 42 0
 -126 -115 -41 131 0
 -131 126 0
 -131 115 0
 -131 41 0
 -126 -116 -41 132 0
 -132 126 0
 -132 116 0
 -132 41 0
 -126 -115 -42 133 0
 -133 126 0
 -133 115 0
 -133 42 0
 -126 -116 -42 134 0
 -134 126 0
 -134 116 0
 -134 42 0
 -135 -125 -47 0
 -136 -126 -47 0
 -136 -125 -48 0
 -136 -126 -48 0
 -145 -135 -53 147 0
 -147 145 0
 -147 135 0
 -147 53 0
 -145 -136 -53 148 0
 -148 145 0
 -148 136 0
 -148 53 0
 -145 -135 -54 149 0
 -149 145 0
 -149 135 0
 -149 54 0
 -145 -136 -54 150 0
 -150 145 0
 -150 136 0
 -150 54 0
 -146 -135 -53 151 0
 -151 146 0
 -151 135 0
 -151 53 0
 -146 -136 -53 152 0
 -152 146 0
 -152 136 0
 -152 53 0
 -146 -135 -54 153 0
 -153 146 0
 -153 135 0
 -153 54 0
 -146 -136 -54 154 0
 -154 146 0
 -154 136 0
 -154 54 0
 -155 -60 0
 -156 -59 0
 -161 -155 -65 163 0
 -163 161 0
 -163 155 0
 -163 65 0
 -161 -156 -65 164 0
 -164 161 0
 -164 156 0
 -164 65 0
 -161 -155 -66 165 0
 -165 161 0
 -165 155 0
 -165 66 0
 -161 -156 -66 166 0
 -166 161 0
 -166 156 0
 -166 66 0
 -162 -155 -65 167 0
 -167 162 0
 -167 155 0
 -167 65 0
 -162 -156 -65 168 0
 -168 162 0
 -168 156 0
 -168 65 0
 -162 -155 -66 169 0
 -169 162 0
 -169 155 0
 -169 66 0
 -162 -156 -66 170 0
 -170 162 0
 -170 156 0
 -170 66 0
 -171 -161 -75 0
 -171 -162 -75 0
 -171 -161 -76 0
 -172 -162 -76 0
 -181 -171 -85 183 0
 -183 181 0
 -183 171 0
 -183 85 0
 -181 -172 -85 184 0
 -184 181 0
 -184 172 0
 -184 85 0
 -181 -171 -86 185 0
 -185 181 0
 -185 171 0
 -185 86 0
 -181 -172 -86 186 0
 -186 181 0
 -186 172 0
 -186 86 0
 -182 -171 -85 187 0
 -187 182 0
 -187 171 0
 -187 85 0
 -182 -172 -85 188 0
 -188 182 0
 -188 172 0
 -188 85 0
 -182 -171 -86 189 0
 -189 182 0
 -189 171 0
 -189 86 0
 -182 -172 -86 190 0
 -190 182 0
 -190 172 0
 -190 86 0
 -191 -181 -95 193 0
 -193 191 0
 -193 181 0
 -193 95 0
 -191 -182 -95 194 0
 -194 191 0
 -194 182 0
 -194 95 0
 -191 -181 -96 195 0
 -195 191 0
 -195 181 0
 -195 96 0
 -191 -182 -96 196 0
 -196 191 0
 -196 182 0
 -196 96 0
 -192 -181 -95 197 0
 -197 192 0
 -197 181 0
 -197 95 0
 -192 -182 -95 198 0
 -198 192 0
 -198 182 0
 -198 95 0
 -192 -181 -96 199 0
 -199 192 0
 -199 181 0
 -199 96 0
 -192 -182 -96 200 0
 -200 192 0
 -200 182 0
 -200 96 0
 -201 -191 -105 203 0
 -203 201 0
 -203 191 0
 -203 105 0
 -201 -192 -105 204 0
 -204 201 0
 -204 192 0
 -204 105 0
 -201 -191 -106 205 0
 -205 201 0
 -205 191 0
 -205 106 0
 -201 -192 -106 206 0
 -206 201 0
 -206 192 0
 -206 106 0
 -202 -191 -105 207 0
 -207 202 0
 -207 191 0
 -207 105 0
 -202 -192 -105 208 0
 -208 202 0
 -208 192 0
 -208 105 0
 -202 -191 -106 209 0
 -209 202 0
 -209 191 0
 -209 106 0
 -202 -192 -106 210 0
 -210 202 0
 -210 192 0
 -210 106 0
 -211 -201 -115 213 0
 -213 211 0
 -213 201 0
 -213 115 0
 -211 -202 -115 214 0
 -214 211 0
 -214 202 0
 -214 115 0
 -211 -201 -116 215 0
 -215 211 0
 -215 201 0
 -215 116 0
 -211 -202 -116 216 0
 -216 211 0
 -216 202 0
 -216 116 0
 -212 -201 -115 217 0
 -217 212 0
 -217 201 0
 -217 115 0
 -212 -202 -115 218 0
 -218 212 0
 -218 202 0
 -218 115 0
 -212 -201 -116 219 0
 -219 212 0
 -219 201 0
 -219 116 0
 -212 -202 -116 220 0
 -220 212 0
 -220 202 0
 -220 116 0
 -221 -212 -126 0
 -222 -211 -125 0
 -222 -212 -125 0
 -222 -211 -126 0
 -231 -221 -135 233 0
 -233 231 0
 -233 221 0
 -233 135 0
 -231 -222 -135 234 0
 -234 231 0
 -234 222 0
 -234 135 0
 -231 -221 -136 235 0
 -235 231 0
 -235 221 0
 -235 136 0
 -231 -222 -136 236 0
 -236 231 0
 -236 222 0
 -236 136 0
 -232 -221 -135 237 0
 -237 232 0
 -237 221 0
 -237 135 0
 -232 -222 -135 238 0
 -238 232 0
 -238 222 0
 -238 135 0
 -232 -221 -136 239 0
 -239 232 0
 -239 221 0
 -239 136 0
 -232 -222 -136 240 0
 -240 232 0
 -240 222 0
 -240 136 0
 -241 -231 -146 0
 -242 -231 -145 0
 -242 -232 -145 0
 -242 -232 -146 0
 -251 -155 253 0
 -253 251 0
 -253 155 0
 -251 -156 254 0
 -254 251 0
 -254 156 0
 -252 -155 255 0
 -255 252 0
 -255 155 0
 -252 -156 256 0
 -256 252 0
 -256 156 0
 -257 -251 -161 259 0
 -259 257 0
 -259 251 0
 -259 161 0
 -257 -252 -161 260 0
 -260 257 0
 -260 252 0
 -260 161 0
 -257 -251 -162 261 0
 -261 257 0
 -261 251 0
 -261 162 0
 -257 -252 -162 262 0
 -262 257 0
 -262 252 0
 -262 162 0
 -258 -251 -161 263 0
 -263 258 0
 -263 251 0
 -263 161 0
 -258 -252 -161 264 0
 -264 258 0
 -264 252 0
 -264 161 0
 -258 -251 -162 265 0
 -265 258 0
 -265 251 0
 -265 162 0
 -258 -252 -162 266 0
 -266 258 0
 -266 252 0
 -266 162 0
 -267 -257 -172 0
 -267 -258 -172 0
 -268 -257 -171 0
 -268 -258 -171 0
 -277 -267 -182 0
 -277 -268 -182 0
 -278 -267 -181 0
 -278 -268 -181 0
 -287 -278 -191 0
 -288 -277 -191 0
 -288 -277 -192 0
 -288 -278 -192 0
 -297 -287 -201 299 0
 -299 297 0
 -299 287 0
 -299 201 0
 -297 -288 -201 300 0
 -300 297 0
 -300 288 0
 -300 201 0
 -297 -287 -202 301 0
 -301 297 0
 -301 287 0
 -301 202 0
 -297 -288 -202 302 0
 -302 297 0
 -302 288 0
 -302 202 0
 -298 -287 -201 303 0
 -303 298 0
 -303 287 0
 -303 201 0
 -298 -288 -201 304 0
 -304 298 0
 -304 288 0
 -304 201 0
 -298 -287 -202 305 0
 -305 298 0
 -305 287 0
 -305 202 0
 -298 -288 -202 306 0
 -306 298 0
 -306 288 0
 -306 202 0
 -307 -297 -211 309 0
 -309 307 0
 -309 297 0
 -309 211 0
 -307 -298 -211 310 0
 -310 307 0
 -310 298 0
 -310 211 0
 -307 -297 -212 311 0
 -311 307 0
 -311 297 0
 -311 212 0
 -307 -298 -212 312 0
 -312 307 0
 -312 298 0
 -312 212 0
 -308 -297 -211 313 0
 -313 308 0
 -313 297 0
 -313 211 0
 -308 -298 -211 314 0
 -314 308 0
 -314 298 0
 -314 211 0
 -308 -297 -212 315 0
 -315 308 0
 -315 297 0
 -315 212 0
 -308 -298 -212 316 0
 -316 308 0
 -316 298 0
 -316 212 0
 -317 -307 -222 0
 -318 -307 -221 0
 -318 -308 -221 0
 -318 -308 -222 0
 -327 -317 -231 329 0
 -329 327 0
 -329 317 0
 -329 231 0
 -327 -318 -231 330 0
 -330 327 0
 -330 318 0
 -330 231 0
 -327 -317 -232 331 0
 -331 327 0
 -331 317 0
 -331 232 0
 -327 -318 -232 332 0
 -332 327 0
 -332 318 0
 -332 232 0
 -328 -317 -231 333 0
 -333 328 0
 -333 317 0
 -333 231 0
 -328 -318 -231 334 0
 -334 328 0
 -334 318 0
 -334 231 0
 -328 -317 -232 335 0
 -335 328 0
 -335 317 0
 -335 232 0
 -328 -318 -232 336 0
 -336 328 0
 -336 318 0
 -336 232 0
 -337 -327 -242 0
 -337 -328 -242 0
 -338 -327 -241 0
 -338 -328 -241 0
 -347 -252 0
 -348 -251 0
 -353 -347 -257 0
 -353 -348 -257 0
 -354 -347 -258 0
 -354 -348 -258 0
 -363 -353 -267 0
 -363 -353 -268 0
 -364 -354 -267 0
 -364 -354 -268 0
 -373 -363 -277 375 0
 -375 373 0
 -375 363 0
 -375 277 0
 -373 -364 -277 376 0
 -376 373 0
 -376 364 0
 -376 277 0
 -373 -363 -278 377 0
 -377 373 0
 -377 363 0
 -377 278 0
 -373 -364 -278 378 0
 -378 373 0
 -378 364 0
 -378 278 0
 -374 -363 -277 379 0
 -379 374 0
 -379 363 0
 -379 277 0
 -374 -364 -277 380 0
 -380 374 0
 -380 364 0
 -380 277 0
 -374 -363 -278 381 0
 -381 374 0
 -381 363 0
 -381 278 0
 -374 -364 -278 382 0
 -382 374 0
 -382 364 0
 -382 278 0
 -383 -373 -287 385 0
 -385 383 0
 -385 373 0
 -385 287 0
 -383 -374 -287 386 0
 -386 383 0
 -386 374 0
 -386 287 0
 -383 -373 -288 387 0
 -387 383 0
 -387 373 0
 -387 288 0
 -383 -374 -288 388 0
 -388 383 0
 -388 374 0
 -388 288 0
 -384 -373 -287 389 0
 -389 384 0
 -389 373 0
 -389 287 0
 -384 -374 -287 390 0
 -390 384 0
 -390 374 0
 -390 287 0
 -384 -373 -288 391 0
 -391 384 0
 -391 373 0
 -391 288 0
 -384 -374 -288 392 0
 -392 384 0
 -392 374 0
 -392 288 0
 -393 -383 -297 395 0
 -395 393 0
 -395 383 0
 -395 297 0
 -393 -384 -297 396 0
 -396 393 0
 -396 384 0
 -396 297 0
 -393 -383 -298 397 0
 -397 393 0
 -397 383 0
 -397 298 0
 -393 -384 -298 398 0
 -398 393 0
 -398 384 0
 -398 298 0
 -394 -383 -297 399 0
 -399 394 0
 -399 383 0
 -399 297 0
 -394 -384 -297 400 0
 -400 394 0
 -400 384 0
 -400 297 0
 -394 -383 -298 401 0
 -401 394 0
 -401 383 0
 -401 298 0
 -394 -384 -298 402 0
 -402 394 0
 -402 384 0
 -402 298 0
 -403 -393 -307 405 0
 -405 403 0
 -405 393 0
 -405 307 0
 -403 -394 -307 406 0
 -406 403 0
 -406 394 0
 -406 307 0
 -403 -393 -308 407 0
 -407 403 0
 -407 393 0
 -407 308 0
 -403 -394 -308 408 0
 -408 403 0
 -408 394 0
 -408 308 0
 -404 -393 -307 409 0
 -409 404 0
 -409 393 0
 -409 307 0
 -404 -394 -307 410 0
 -410 404 0
 -410 394 0
 -410 307 0
 -404 -393 -308 411 0
 -411 404 0
 -411 393 0
 -411 308 0
 -404 -394 -308 412 0
 -412 404 0
 -412 394 0
 -412 308 0
 -413 -403 -317 415 0
 -415 413 0
 -415 403 0
 -415 317 0
 -413 -404 -317 416 0
 -416 413 0
 -416 404 0
 -416 317 0
 -413 -403 -318 417 0
 -417 413 0
 -417 403 0
 -417 318 0
 -413 -404 -318 418 0
 -418 413 0
 -418 404 0
 -418 318 0
 -414 -403 -317 419 0
 -419 414 0
 -419 403 0
 -419 317 0
 -414 -404 -317 420 0
 -420 414 0
 -420 404 0
 -420 317 0
 -414 -403 -318 421 0
 -421 414 0
 -421 403 0
 -421 318 0
 -414 -404 -318 422 0
 -422 414 0
 -422 404 0
 -422 318 0
 -423 -414 -327 0
 -423 -413 -328 0
 -423 -414 -328 0
 -424 -413 -327 0
 -433 -423 -337 435 0
 -435 433 0
 -435 423 0
 -435 337 0
 -433 -424 -337 436 0
 -436 433 0
 -436 424 0
 -436 337 0
 -433 -423 -338 437 0
 -437 433 0
 -437 423 0
 -437 338 0
 -433 -424 -338 438 0
 -438 433 0
 -438 424 0
 -438 338 0
 -434 -423 -337 439 0
 -439 434 0
 -439 423 0
 -439 337 0
 -434 -424 -337 440 0
 -440 434 0
 -440 424 0
 -440 337 0
 -434 -423 -338 441 0
 -441 434 0
 -441 423 0
 -441 338 0
 -434 -424 -338 442 0
 -442 434 0
 -442 424 0
 -442 338 0
 -443 -347 445 0
 -445 443 0
 -445 347 0
 -443 -348 446 0
 -446 443 0
 -446 348 0
 -444 -347 447 0
 -447 444 0
 -447 347 0
 -444 -348 448 0
 -448 444 0
 -448 348 0
 -449 -443 -353 451 0
 -451 449 0
 -451 443 0
 -451 353 0
 -449 -444 -353 452 0
 -452 449 0
 -452 444 0
 -452 353 0
 -449 -443 -354 453 0
 -453 449 0
 -453 443 0
 -453 354 0
 -449 -444 -354 454 0
 -454 449 0
 -454 444 0
 -454 354 0
 -450 -443 -353 455 0
 -455 450 0
 -455 443 0
 -455 353 0
 -450 -444 -353 456 0
 -456 450 0
 -456 444 0
 -456 353 0
 -450 -443 -354 457 0
 -457 450 0
 -457 443 0
 -457 354 0
 -450 -444 -354 458 0
 -458 450 0
 -458 444 0
 -458 354 0
 -459 -450 -364 0
 -460 -449 -363 0
 -460 -450 -363 0
 -460 -449 -364 0
 -469 -459 -373 471 0
 -471 469 0
 -471 459 0
 -471 373 0
 -469 -460 -373 472 0
 -472 469 0
 -472 460 0
 -472 373 0
 -469 -459 -374 473 0
 -473 469 0
 -473 459 0
 -473 374 0
 -469 -460 -374 474 0
 -474 469 0
 -474 460 0
 -474 374 0
 -470 -459 -373 475 0
 -475 470 0
 -475 459 0
 -475 373 0
 -470 -460 -373 476 0
 -476 470 0
 -476 460 0
 -476 373 0
 -470 -459 -374 477 0
 -477 470 0
 -477 459 0
 -477 374 0
 -470 -460 -374 478 0
 -478 470 0
 -478 460 0
 -478 374 0
 -479 -469 -383 481 0
 -481 479 0
 -481 469 0
 -481 383 0
 -479 -470 -383 482 0
 -482 479 0
 -482 470 0
 -482 383 0
 -479 -469 -384 483 0
 -483 479 0
 -483 469 0
 -483 384 0
 -479 -470 -384 484 0
 -484 479 0
 -484 470 0
 -484 384 0
 -480 -469 -383 485 0
 -485 480 0
 -485 469 0
 -485 383 0
 -480 -470 -383 486 0
 -486 480 0
 -486 470 0
 -486 383 0
 -480 -469 -384 487 0
 -487 480 0
 -487 469 0
 -487 384 0
 -480 -470 -384 488 0
 -488 480 0
 -488 470 0
 -488 384 0
 -489 -479 -393 491 0
 -491 489 0
 -491 479 0
 -491 393 0
 -489 -480 -393 492 0
 -492 489 0
 -492 480 0
 -492 393 0
 -489 -479 -394 493 0
 -493 489 0
 -493 479 0
 -493 394 0
 -489 -480 -394 494 0
 -494 489 0
 -494 480 0
 -494 394 0
 -490 -479 -393 495 0
 -495 490 0
 -495 479 0
 -495 393 0
 -490 -480 -393 496 0
 -496 490 0
 -496 480 0
 -496 393 0
 -490 -479 -394 497 0
 -497 490 0
 -497 479 0
 -497 394 0
 -490 -480 -394 498 0
 -498 490 0
 -498 480 0
 -498 394 0
 -499 -489 -404 0
 -500 -489 -403 0
 -500 -490 -403 0
 -500 -490 -404 0
 -509 -499 -413 511 0
 -511 509 0
 -511 499 0
 -511 413 0
 -509 -500 -413 512 0
 -512 509 0
 -512 500 0
 -512 413 0
 -509 -499 -414 513 0
 -513 509 0
 -513 499 0
 -513 414 0
 -509 -500 -414 514 0
 -514 509 0
 -514 500 0
 -514 414 0
 -510 -499 -413 515 0
 -515 510 0
 -515 499 0
 -515 413 0
 -510 -500 -413 516 0
 -516 510 0
 -516 500 0
 -516 413 0
 -510 -499 -414 517 0
 -517 510 0
 -517 499 0
 -517 414 0
 -510 -500 -414 518 0
 -518 510 0
 -518 500 0
 -518 414 0
 -519 -509 -423 521 0
 -521 519 0
 -521 509 0
 -521 423 0
 -519 -510 -423 522 0
 -522 519 0
 -522 510 0
 -522 423 0
 -519 -509 -424 523 0
 -523 519 0
 -523 509 0
 -523 424 0
 -519 -510 -424 524 0
 -524 519 0
 -524 510 0
 -524 424 0
 -520 -509 -423 525 0
 -525 520 0
 -525 509 0
 -525 423 0
 -520 -510 -423 526 0
 -526 520 0
 -526 510 0
 -526 423 0
 -520 -509 -424 527 0
 -527 520 0
 -527 509 0
 -527 424 0
 -520 -510 -424 528 0
 -528 520 0
 -528 510 0
 -528 424 0
 -529 -520 -433 0
 -529 -519 -434 0
 -529 -520 -434 0
 -530 -519 -433 0
 -539 -443 541 0
 -541 539 0
 -541 443 0
 -539 -444 542 0
 -542 539 0
 -542 444 0
 -540 -443 543 0
 -543 540 0
 -543 443 0
 -540 -444 544 0
 -544 540 0
 -544 444 0
 -545 -539 -449 547 0
 -547 545 0
 -547 539 0
 -547 449 0
 -545 -540 -449 548 0
 -548 545 0
 -548 540 0
 -548 449 0
 -545 -539 -450 549 0
 -549 545 0
 -549 539 0
 -549 450 0
 -545 -540 -450 550 0
 -550 545 0
 -550 540 0
 -550 450 0
 -546 -539 -449 551 0
 -551 546 0
 -551 539 0
 -551 449 0
 -546 -540 -449 552 0
 -552 546 0
 -552 540 0
 -552 449 0
 -546 -539 -450 553 0
 -553 546 0
 -553 539 0
 -553 450 0
 -546 -540 -450 554 0
 -554 546 0
 -554 540 0
 -554 450 0
 -555 -545 -459 557 0
 -557 555 0
 -557 545 0
 -557 459 0
 -555 -546 -459 558 0
 -558 555 0
 -558 546 0
 -558 459 0
 -555 -545 -460 559 0
 -559 555 0
 -559 545 0
 -559 460 0
 -555 -546 -460 560 0
 -560 555 0
 -560 546 0
 -560 460 0
 -556 -545 -459 561 0
 -561 556 0
 -561 545 0
 -561 459 0
 -556 -546 -459 562 0
 -562 556 0
 -562 546 0
 -562 459 0
 -556 -545 -460 563 0
 -563 556 0
 -563 545 0
 -563 460 0
 -556 -546 -460 564 0
 -564 556 0
 -564 546 0
 -564 460 0
 -565 -556 -469 0
 -565 -556 -470 0
 -566 -555 -469 0
 -566 -555 -470 0
 -575 -565 -479 577 0
 -577 575 0
 -577 565 0
 -577 479 0
 -575 -566 -479 578 0
 -578 575 0
 -578 566 0
 -578 479 0
 -575 -565 -480 579 0
 -579 575 0
 -579 565 0
 -579 480 0
 -575 -566 -480 580 0
 -580 575 0
 -580 566 0
 -580 480 0
 -576 -565 -479 581 0
 -581 576 0
 -581 565 0
 -581 479 0
 -576 -566 -479 582 0
 -582 576 0
 -582 566 0
 -582 479 0
 -576 -565 -480 583 0
 -583 576 0
 -583 565 0
 -583 480 0
 -576 -566 -480 584 0
 -584 576 0
 -584 566 0
 -584 480 0
 -585 -575 -489 587 0
 -587 585 0
 -587 575 0
 -587 489 0
 -585 -576 -489 588 0
 -588 585 0
 -588 576 0
 -588 489 0
 -585 -575 -490 589 0
 -589 585 0
 -589 575 0
 -589 490 0
 -585 -576 -490 590 0
 -590 585 0
 -590 576 0
 -590 490 0
 -586 -575 -489 591 0
 -591 586 0
 -591 575 0
 -591 489 0
 -586 -576 -489 592 0
 -592 586 0
 -592 576 0
 -592 489 0
 -586 -575 -490 593 0
 -593 586 0
 -593 575 0
 -593 490 0
 -586 -576 -490 594 0
 -594 586 0
 -594 576 0
 -594 490 0
 -595 -585 -500 0
 -596 -585 -499 0
 -596 -586 -499 0
 -596 -586 -500 0
 -605 -595 -509 607 0
 -607 605 0
 -607 595 0
 -607 509 0
 -605 -596 -509 608 0
 -608 605 0
 -608 596 0
 -608 509 0
 -605 -595 -510 609 0
 -609 605 0
 -609 595 0
 -609 510 0
 -605 -596 -510 610 0
 -610 605 0
 -610 596 0
 -610 510 0
 -606 -595 -509 611 0
 -611 606 0
 -611 595 0
 -611 509 0
 -606 -596 -509 612 0
 -612 606 0
 -612 596 0
 -612 509 0
 -606 -595 -510 613 0
 -613 606 0
 -613 595 0
 -613 510 0
 -606 -596 -510 614 0
 -614 606 0
 -614 596 0
 -614 510 0
 -615 -605 -519 617 0
 -617 615 0
 -617 605 0
 -617 519 0
 -615 -606 -519 618 0
 -618 615 0
 -618 606 0
 -618 519 0
 -615 -605 -520 619 0
 -619 615 0
 -619 605 0
 -619 520 0
 -615 -606 -520 620 0
 -620 615 0
 -620 606 0
 -620 520 0
 -616 -605 -519 621 0
 -621 616 0
 -621 605 0
 -621 519 0
 -616 -606 -519 622 0
 -622 616 0
 -622 606 0
 -622 519 0
 -616 -605 -520 623 0
 -623 616 0
 -623 605 0
 -623 520 0
 -616 -606 -520 624 0
 -624 616 0
 -624 606 0
 -624 520 0
 -625 -615 -529 627 0
 -627 625 0
 -627 615 0
 -627 529 0
 -625 -616 -529 628 0
 -628 625 0
 -628 616 0
 -628 529 0
 -625 -615 -530 629 0
 -629 625 0
 -629 615 0
 -629 530 0
 -625 -616 -530 630 0
 -630 625 0
 -630 616 0
 -630 530 0
 -626 -615 -529 631 0
 -631 626 0
 -631 615 0
 -631 529 0
 -626 -616 -529 632 0
 -632 626 0
 -632 616 0
 -632 529 0
 -626 -615 -530 633 0
 -633 626 0
 -633 615 0
 -633 530 0
 -626 -616 -530 634 0
 -634 626 0
 -634 616 0
 -634 530 0
 -635 -539 637 0
 -637 635 0
 -637 539 0
 -635 -540 638 0
 -638 635 0
 -638 540 0
 -636 -539 639 0
 -639 636 0
 -639 539 0
 -636 -540 640 0
 -640 636 0
 -640 540 0
 -641 -635 -545 0
 -641 -636 -545 0
 -641 -635 -546 0
 -642 -636 -546 0
 -651 -641 -555 653 0
 -653 651 0
 -653 641 0
 -653 555 0
 -651 -642 -555 654 0
 -654 651 0
 -654 642 0
 -654 555 0
 -651 -641 -556 655 0
 -655 651 0
 -655 641 0
 -655 556 0
 -651 -642 -556 656 0
 -656 651 0
 -656 642 0
 -656 556 0
 -652 -641 -555 657 0
 -657 652 0
 -657 641 0
 -657 555 0
 -652 -642 -555 658 0
 -658 652 0
 -658 642 0
 -658 555 0
 -652 -641 -556 659 0
 -659 652 0
 -659 641 0
 -659 556 0
 -652 -642 -556 660 0
 -660 652 0
 -660 642 0
 -660 556 0
 -661 -651 -565 0
 -661 -651 -566 0
 -661 -652 -566 0
 -662 -652 -565 0
 -671 -662 -575 0
 -671 -661 -576 0
 -672 -661 -575 0
 -672 -662 -576 0
 -681 -671 -586 0
 -682 -671 -585 0
 -682 -672 -585 0
 -682 -672 -586 0
 -691 -681 -595 0
 -691 -682 -595 0
 -691 -681 -596 0
 -692 -682 -596 0
 -701 -691 -605 703 0
 -703 701 0
 -703 691 0
 -703 605 0
 -701 -692 -605 704 0
 -704 701 0
 -704 692 0
 -704 605 0
 -701 -691 -606 705 0
 -705 701 0
 -705 691 0
 -705 606 0
 -701 -692 -606 706 0
 -706 701 0
 -706 692 0
 -706 606 0
 -702 -691 -605 707 0
 -707 702 0
 -707 691 0
 -707 605 0
 -702 -692 -605 708 0
 -708 702 0
 -708 692 0
 -708 605 0
 -702 -691 -606 709 0
 -709 702 0
 -709 691 0
 -709 606 0
 -702 -692 -606 710 0
 -710 702 0
 -710 692 0
 -710 606 0
 -711 -701 -615 713 0
 -713 711 0
 -713 701 0
 -713 615 0
 -711 -702 -615 714 0
 -714 711 0
 -714 702 0
 -714 615 0
 -711 -701 -616 715 0
 -715 711 0
 -715 701 0
 -715 616 0
 -711 -702 -616 716 0
 -716 711 0
 -716 702 0
 -716 616 0
 -712 -701 -615 717 0
 -717 712 0
 -717 701 0
 -717 615 0
 -712 -702 -615 718 0
 -718 712 0
 -718 702 0
 -718 615 0
 -712 -701 -616 719 0
 -719 712 0
 -719 701 0
 -719 616 0
 -712 -702 -616 720 0
 -720 712 0
 -720 702 0
 -720 616 0
 -721 -711 -625 0
 -721 -712 -625 0
 -721 -712 -626 0
 -722 -711 -626 0
 -731 -635 733 0
 -733 731 0
 -733 635 0
 -731 -636 734 0
 -734 731 0
 -734 636 0
 -732 -635 735 0
 -735 732 0
 -735 635 0
 -732 -636 736 0
 -736 732 0
 -736 636 0
 -737 -731 -641 0
 -737 -731 -642 0
 -738 -732 -641 0
 -738 -732 -642 0
 -747 -737 -651 749 0
 -749 747 0
 -749 737 0
 -749 651 0
 -747 -738 -651 750 0
 -750 747 0
 -750 738 0
 -750 651 0
 -747 -737 -652 751 0
 -751 747 0
 -751 737 0
 -751 652 0
 -747 -738 -652 752 0
 -752 747 0
 -752 738 0
 -752 652 0
 -748 -737 -651 753 0
 -753 748 0
 -753 737 0
 -753 651 0
 -748 -738 -651 754 0
 -754 748 0
 -754 738 0
 -754 651 0
 -748 -737 -652 755 0
 -755 748 0
 -755 737 0
 -755 652 0
 -748 -738 -652 756 0
 -756 748 0
 -756 738 0
 -756 652 0
 -757 -747 -661 759 0
 -759 757 0
 -759 747 0
 -759 661 0
 -757 -748 -661 760 0
 -760 757 0
 -760 748 0
 -760 661 0
 -757 -747 -662 761 0
 -761 757 0
 -761 747 0
 -761 662 0
 -757 -748 -662 762 0
 -762 757 0
 -762 748 0
 -762 662 0
 -758 -747 -661 763 0
 -763 758 0
 -763 747 0
 -763 661 0
 -758 -748 -661 764 0
 -764 758 0
 -764 748 0
 -764 661 0
 -758 -747 -662 765 0
 -765 758 0
 -765 747 0
 -765 662 0
 -758 -748 -662 766 0
 -766 758 0
 -766 748 0
 -766 662 0
 -767 -757 -671 769 0
 -769 767 0
 -769 757 0
 -769 671 0
 -767 -758 -671 770 0
 -770 767 0
 -770 758 0
 -770 671 0
 -767 -757 -672 771 0
 -771 767 0
 -771 757 0
 -771 672 0
 -767 -758 -672 772 0
 -772 767 0
 -772 758 0
 -772 672 0
 -768 -757 -671 773 0
 -773 768 0
 -773 757 0
 -773 671 0
 -768 -758 -671 774 0
 -774 768 0
 -774 758 0
 -774 671 0
 -768 -757 -672 775 0
 -775 768 0
 -775 757 0
 -775 672 0
 -768 -758 -672 776 0
 -776 768 0
 -776 758 0
 -776 672 0
 -777 -767 -681 779 0
 -779 777 0
 -779 767 0
 -779 681 0
 -777 -768 -681 780 0
 -780 777 0
 -780 768 0
 -780 681 0
 -777 -767 -682 781 0
 -781 777 0
 -781 767 0
 -781 682 0
 -777 -768 -682 782 0
 -782 777 0
 -782 768 0
 -782 682 0
 -778 -767 -681 783 0
 -783 778 0
 -783 767 0
 -783 681 0
 -778 -768 -681 784 0
 -784 778 0
 -784 768 0
 -784 681 0
 -778 -767 -682 785 0
 -785 778 0
 -785 767 0
 -785 682 0
 -778 -768 -682 786 0
 -786 778 0
 -786 768 0
 -786 682 0
 -787 -777 -691 789 0
 -789 787 0
 -789 777 0
 -789 691 0
 -787 -778 -691 790 0
 -790 787 0
 -790 778 0
 -790 691 0
 -787 -777 -692 791 0
 -791 787 0
 -791 777 0
 -791 692 0
 -787 -778 -692 792 0
 -792 787 0
 -792 778 0
 -792 692 0
 -788 -777 -691 793 0
 -793 788 0
 -793 777 0
 -793 691 0
 -788 -778 -691 794 0
 -794 788 0
 -794 778 0
 -794 691 0
 -788 -777 -692 795 0
 -795 788 0
 -795 777 0
 -795 692 0
 -788 -778 -692 796 0
 -796 788 0
 -796 778 0
 -796 692 0
 -797 -787 -701 0
 -797 -787 -702 0
 -797 -788 -702 0
 -798 -788 -701 0
 -807 -797 -711 0
 -807 -798 -712 0
 -808 -798 -711 0
 -808 -797 -712 0
 -817 -807 -721 819 0
 -819 817 0
 -819 807 0
 -819 721 0
 -817 -808 -721 820 0
 -820 817 0
 -820 808 0
 -820 721 0
 -817 -807 -722 821 0
 -821 817 0
 -821 807 0
 -821 722 0
 -817 -808 -722 822 0
 -822 817 0
 -822 808 0
 -822 722 0
 -818 -807 -721 823 0
 -823 818 0
 -823 807 0
 -823 721 0
 -818 -808 -721 824 0
 -824 818 0
 -824 808 0
 -824 721 0
 -818 -807 -722 825 0
 -825 818 0
 -825 807 0
 -825 722 0
 -818 -808 -722 826 0
 -826 818 0
 -826 808 0
 -826 722 0
 -827 -732 0
 -828 -731 0
 -833 -827 -737 835 0
 -835 833 0
 -835 827 0
 -835 737 0
 -833 -828 -737 836 0
 -836 833 0
 -836 828 0
 -836 737 0
 -833 -827 -738 837 0
 -837 833 0
 -837 827 0
 -837 738 0
 -833 -828 -738 838 0
 -838 833 0
 -838 828 0
 -838 738 0
 -834 -827 -737 839 0
 -839 834 0
 -839 827 0
 -839 737 0
 -834 -828 -737 840 0
 -840 834 0
 -840 828 0
 -840 737 0
 -834 -827 -738 841 0
 -841 834 0
 -841 827 0
 -841 738 0
 -834 -828 -738 842 0
 -842 834 0
 -842 828 0
 -842 738 0
 -843 -834 -747 0
 -843 -833 -748 0
 -844 -833 -747 0
 -844 -834 -748 0
 -853 -844 -757 0
 -853 -843 -758 0
 -853 -844 -758 0
 -854 -843 -757 0
 -863 -853 -767 865 0
 -865 863 0
 -865 853 0
 -865 767 0
 -863 -854 -767 866 0
 -866 863 0
 -866 854 0
 -866 767 0
 -863 -853 -768 867 0
 -867 863 0
 -867 853 0
 -867 768 0
 -863 -854 -768 868 0
 -868 863 0
 -868 854 0
 -868 768 0
 -864 -853 -767 869 0
 -869 864 0
 -869 853 0
 -869 767 0
 -864 -854 -767 870 0
 -870 864 0
 -870 854 0
 -870 767 0
 -864 -853 -768 871 0
 -871 864 0
 -871 853 0
 -871 768 0
 -864 -854 -768 872 0
 -872 864 0
 -872 854 0
 -872 768 0
 -873 -863 -777 0
 -873 -864 -777 0
 -873 -863 -778 0
 -874 -864 -778 0
 -883 -873 -787 0
 -883 -874 -788 0
 -884 -874 -787 0
 -884 -873 -788 0
 -893 -883 -798 0
 -894 -883 -797 0
 -894 -884 -797 0
 -894 -884 -798 0
 -903 -893 -807 0
 -903 -894 -807 0
 -903 -893 -808 0
 -904 -894 -808 0
 -913 -903 -817 915 0
 -915 913 0
 -915 903 0
 -915 817 0
 -913 -904 -817 916 0
 -916 913 0
 -916 904 0
 -916 817 0
 -913 -903 -818 917 0
 -917 913 0
 -917 903 0
 -917 818 0
 -913 -904 -818 918 0
 -918 913 0
 -918 904 0
 -918 818 0
 -914 -903 -817 919 0
 -919 914 0
 -919 903 0
 -919 817 0
 -914 -904 -817 920 0
 -920 914 0
 -920 904 0
 -920 817 0
 -914 -903 -818 921 0
 -921 914 0
 -921 903 0
 -921 818 0
 -914 -904 -818 922 0
 -922 914 0
 -922 904 0
 -922 818 0
